     Program PWSCF v.6.4.1 starts on 17Oct2020 at 23:53:29

     R & G space division:  proc/nbgrp/npool/nimage =       4
     Reading input from si.pwi
Warning: card &IONS ignored
Warning: card / ignored
Warning: card &CELL ignored
Warning: card / ignored

     Current dimensions of program PWSCF are:
     Max number of different atomic species (ntypx) = 10
     Max number of k-points (npk) =  40000
     Max angular momentum in pseudopotentials (lmaxx) =  3
               file Si.pbe-n-kjpaw_psl.1.0.0.UPF: wavefunction(s)  3S 3P renormalized

     Subspace diagonalization in iterative solution of the eigenvalue problem:
     a serial algorithm will be used

     Message from routine setup:
     DEPRECATED: symmetry with ibrav=0, use correct ibrav instead

     bravais-lattice index     =            0
     lattice parameter (alat)  =       7.2558  a.u.
     unit-cell volume          =     270.1074 (a.u.)^3
     number of atoms/cell      =            2
     number of atomic types    =            1
     number of electrons       =         8.00
     number of Kohn-Sham states=            4
     kinetic-energy cutoff     =      20.0000  Ry
     charge density cutoff     =      80.0000  Ry
     convergence threshold     =      1.0E-06
     mixing beta               =       0.7000
     number of iterations used =            8  plain     mixing
     Exchange-correlation      = SLA PW PBX PBC ( 1  4  3  4 0 0)

     celldm(1)=   7.255775  celldm(2)=   0.000000  celldm(3)=   0.000000
     celldm(4)=   0.000000  celldm(5)=   0.000000  celldm(6)=   0.000000

     crystal axes: (cart. coord. in units of alat)
               a(1) = (   0.000000   0.707107   0.707107 )
               a(2) = (   0.707107   0.000000   0.707107 )
               a(3) = (   0.707107   0.707107   0.000000 )

     reciprocal axes: (cart. coord. in units 2 pi/alat)
               b(1) = ( -0.707107  0.707107  0.707107 )
               b(2) = (  0.707107 -0.707107  0.707107 )
               b(3) = (  0.707107  0.707107 -0.707107 )

     PseudoPot. # 1 for Si read from file:
     /home/xing/datas/pseudo/Si.pbe-n-kjpaw_psl.1.0.0.UPF
     MD5 check sum: c39c59da582df4a0d9f10159256ea34e
     Pseudo is Projector augmented-wave + core cor, Zval =  4.0
     Generated using "atomic" code by A. Dal Corso v.6.3
     Shape of augmentation charge: PSQ
     Using radial grid of 1141 points,  6 beta functions with:
                l(1) =   0
                l(2) =   0
                l(3) =   1
                l(4) =   1
                l(5) =   2
                l(6) =   2
     Q(r) pseudized with 0 coefficients

     atomic species   valence    mass     pseudopotential
        Si             4.00    28.08500     Si( 1.00)

     48 Sym. Ops., with inversion, found (24 have fractional translation)

                                    s                        frac. trans.

      isym =  1     identity

 cryst.   s( 1) = (     1          0          0      )
                  (     0          1          0      )
                  (     0          0          1      )

 cart.    s( 1) = (  1.0000000  0.0000000  0.0000000 )
                  (  0.0000000  1.0000000  0.0000000 )
                  (  0.0000000  0.0000000  1.0000000 )

      isym =  2     180 deg rotation - cart. axis [0,0,1]

[...]

 cryst.   s( 4) = (    -1          0          0      )
                  (    -1          0          1      )
                  (    -1          1          0      )

 cart.    s( 4) = (  1.0000000  0.0000000  0.0000000 )
                  (  0.0000000 -1.0000000  0.0000000 )
                  (  0.0000000  0.0000000 -1.0000000 )

[...]

 cryst.   s( 5) = (    -1          0          1      )    f =( -0.2499999 )
                  (     0         -1          1      )       ( -0.2499999 )
                  (     0          0          1      )       ( -0.2500002 )

 cart.    s( 5) = (  0.0000000  1.0000000  0.0000000 )    f =( -0.3535535 )
                  (  1.0000000  0.0000000  0.0000000 )       ( -0.3535535 )
                  (  0.0000000  0.0000000 -1.0000000 )       ( -0.3535533 )

[...]

 cryst.   s( 9) = (    -1          1          0      )    f =( -0.2499999 )
                  (     0          1          0      )       ( -0.2500002 )
                  (     0          1         -1      )       ( -0.2499999 )

 cart.    s( 9) = (  0.0000000  0.0000000  1.0000000 )    f =( -0.3535535 )
                  (  0.0000000 -1.0000000  0.0000000 )       ( -0.3535533 )
                  (  1.0000000  0.0000000  0.0000000 )       ( -0.3535535 )

[...]

 cryst.   s(10) = (     0          0         -1      )    f =( -0.2499999 )
                  (     0         -1          0      )       ( -0.2499999 )
                  (    -1          0          0      )       ( -0.2499999 )

 cart.    s(10) = (  0.0000000  0.0000000 -1.0000000 )    f =( -0.3535533 )
                  (  0.0000000 -1.0000000  0.0000000 )       ( -0.3535533 )
                  ( -1.0000000  0.0000000  0.0000000 )       ( -0.3535533 )

[...]

 cryst.   s(17) = (     0          0          1      )
                  (     1          0          0      )
                  (     0          1          0      )

 cart.    s(17) = (  0.0000000  1.0000000  0.0000000 )
                  (  0.0000000  0.0000000  1.0000000 )
                  (  1.0000000  0.0000000  0.0000000 )

[...]

      isym = 24     120 deg rotation - cart. axis [-1,-1,1]

[...]

      isym = 25     inversion

[...]

      isym = 26     inv. 180 deg rotation - cart. axis [0,0,1]

[...]

 cryst.   s(40) = (     0         -1          1      )
                  (     1         -1          0      )
                  (     0         -1          0      )

 cart.    s(40) = ( -1.0000000  0.0000000  0.0000000 )
                  (  0.0000000  0.0000000  1.0000000 )
                  (  0.0000000 -1.0000000  0.0000000 )

[...]

      isym = 48     inv. 120 deg rotation - cart. axis [-1,-1,1]

 cryst.   s(48) = (     0          1          0      )    f =( -0.2499999 )
                  (    -1          1          0      )       ( -0.2500002 )
                  (     0          1         -1      )       ( -0.2499999 )

 cart.    s(48) = (  0.0000000  0.0000000  1.0000000 )    f =( -0.3535535 )
                  ( -1.0000000  0.0000000  0.0000000 )       ( -0.3535533 )
                  (  0.0000000  1.0000000  0.0000000 )       ( -0.3535535 )

   Cartesian axes

     site n.     atom                  positions (alat units)
         1           Si  tau(   1) = (   0.0000000   0.0000000   0.0000000  )
         2           Si  tau(   2) = (   0.3535533   0.3535533   0.3535533  )

   Crystallographic axes

     site n.     atom                  positions (cryst. coord.)
         1           Si  tau(   1) = (  0.0000000  0.0000000  0.0000000  )
         2           Si  tau(   2) = (  0.2499999  0.2499999  0.2499999  )

     number of k points=   100
                       cart. coord. in units 2pi/alat
        k(    1) = (   0.0000000   0.0000000   0.0000000), wk =   0.0200000
        k(    2) = (   0.0000000   0.0214275   0.0000000), wk =   0.0200000
        k(    3) = (   0.0000000   0.0428550   0.0000000), wk =   0.0200000
        k(    4) = (   0.0000000   0.0642824   0.0000000), wk =   0.0200000
        k(    5) = (   0.0000000   0.0857099   0.0000000), wk =   0.0200000
        k(    6) = (   0.0000000   0.1071374   0.0000000), wk =   0.0200000
        k(    7) = (   0.0000000   0.1285649   0.0000000), wk =   0.0200000
        k(    8) = (   0.0000000   0.1499923   0.0000000), wk =   0.0200000
        k(    9) = (   0.0000000   0.1714198   0.0000000), wk =   0.0200000
        k(   10) = (   0.0000000   0.1928473   0.0000000), wk =   0.0200000
        k(   11) = (   0.0000000   0.2142748   0.0000000), wk =   0.0200000
        k(   12) = (   0.0000000   0.2357023   0.0000000), wk =   0.0200000
        k(   13) = (   0.0000000   0.2571297   0.0000000), wk =   0.0200000
        k(   14) = (   0.0000000   0.2785572   0.0000000), wk =   0.0200000
        k(   15) = (   0.0000000   0.2999847   0.0000000), wk =   0.0200000
        k(   16) = (   0.0000000   0.3214122   0.0000000), wk =   0.0200000
        k(   17) = (   0.0000000   0.3428397   0.0000000), wk =   0.0200000
        k(   18) = (   0.0000000   0.3642671   0.0000000), wk =   0.0200000
        k(   19) = (   0.0000000   0.3856946   0.0000000), wk =   0.0200000
        k(   20) = (   0.0000000   0.4071221   0.0000000), wk =   0.0200000
        k(   21) = (   0.0000000   0.4285496   0.0000000), wk =   0.0200000
        k(   22) = (   0.0000000   0.4499770   0.0000000), wk =   0.0200000
        k(   23) = (   0.0000000   0.4714045   0.0000000), wk =   0.0200000
        k(   24) = (   0.0000000   0.4928320   0.0000000), wk =   0.0200000
        k(   25) = (   0.0000000   0.5142595   0.0000000), wk =   0.0200000
        k(   26) = (   0.0000000   0.5356870   0.0000000), wk =   0.0200000
        k(   27) = (   0.0000000   0.5571144   0.0000000), wk =   0.0200000
        k(   28) = (   0.0000000   0.5785419   0.0000000), wk =   0.0200000
        k(   29) = (   0.0000000   0.5999694   0.0000000), wk =   0.0200000
        k(   30) = (   0.0000000   0.6213969   0.0000000), wk =   0.0200000
        k(   31) = (   0.0000000   0.6428243   0.0000000), wk =   0.0200000
        k(   32) = (   0.0000000   0.6642518   0.0000000), wk =   0.0200000
        k(   33) = (   0.0000000   0.6856793   0.0000000), wk =   0.0200000
        k(   34) = (   0.0000000   0.7071068   0.0000000), wk =   0.0200000
        k(   35) = (   0.0207973   0.7071068  -0.0000000), wk =   0.0200000
        k(   36) = (   0.0415945   0.7071068   0.0000000), wk =   0.0200000
        k(   37) = (   0.0623918   0.7071068   0.0000000), wk =   0.0200000
        k(   38) = (   0.0831890   0.7071068   0.0000000), wk =   0.0200000
        k(   39) = (   0.1039863   0.7071068   0.0000000), wk =   0.0200000
        k(   40) = (   0.1247835   0.7071068   0.0000000), wk =   0.0200000
        k(   41) = (   0.1455808   0.7071068   0.0000000), wk =   0.0200000
        k(   42) = (   0.1663781   0.7071068   0.0000000), wk =   0.0200000
        k(   43) = (   0.1871753   0.7071068   0.0000000), wk =   0.0200000
        k(   44) = (   0.2079726   0.7071068   0.0000000), wk =   0.0200000
        k(   45) = (   0.2287698   0.7071068   0.0000000), wk =   0.0200000
        k(   46) = (   0.2495671   0.7071068  -0.0000000), wk =   0.0200000
        k(   47) = (   0.2703644   0.7071068   0.0000000), wk =   0.0200000
        k(   48) = (   0.2911616   0.7071068   0.0000000), wk =   0.0200000
        k(   49) = (   0.3119589   0.7071068   0.0000000), wk =   0.0200000
        k(   50) = (   0.3327561   0.7071068   0.0000000), wk =   0.0200000
        k(   51) = (   0.3535534   0.7071068   0.0000000), wk =   0.0200000
        k(   52) = (   0.3696240   0.6910362   0.0000000), wk =   0.0200000
        k(   53) = (   0.3856946   0.6749656   0.0000000), wk =   0.0200000
        k(   54) = (   0.4017652   0.6588950   0.0000000), wk =   0.0200000
        k(   55) = (   0.4178358   0.6428243   0.0000000), wk =   0.0200000
        k(   56) = (   0.4339064   0.6267537   0.0000000), wk =   0.0200000
        k(   57) = (   0.4499770   0.6106831   0.0000000), wk =   0.0200000
        k(   58) = (   0.4660477   0.5946125   0.0000000), wk =   0.0200000
        k(   59) = (   0.4821183   0.5785419   0.0000000), wk =   0.0200000
        k(   60) = (   0.4981889   0.5624713   0.0000000), wk =   0.0200000
[...]
        k(   86) = (   0.1953848   0.1953848   0.0000000), wk =   0.0200000
        k(   87) = (   0.1814287   0.1814287   0.0000000), wk =   0.0200000
        k(   88) = (   0.1674727   0.1674727   0.0000000), wk =   0.0200000
        k(   89) = (   0.1535166   0.1535166   0.0000000), wk =   0.0200000
        k(   90) = (   0.1395605   0.1395605   0.0000000), wk =   0.0200000
        k(   91) = (   0.1256045   0.1256045  -0.0000000), wk =   0.0200000
        k(   92) = (   0.1116484   0.1116484  -0.0000000), wk =   0.0200000
        k(   93) = (   0.0976924   0.0976924   0.0000000), wk =   0.0200000
        k(   94) = (   0.0837363   0.0837363   0.0000000), wk =   0.0200000
        k(   95) = (   0.0697803   0.0697803   0.0000000), wk =   0.0200000
        k(   96) = (   0.0558242   0.0558242   0.0000000), wk =   0.0200000
        k(   97) = (   0.0418682   0.0418682  -0.0000000), wk =   0.0200000
        k(   98) = (   0.0279121   0.0279121  -0.0000000), wk =   0.0200000
        k(   99) = (   0.0139561   0.0139561   0.0000000), wk =   0.0200000
        k(  100) = (   0.0000000   0.0000000   0.0000000), wk =   0.0200000

                       cryst. coord.
        k(    1) = (   0.0000000   0.0000000   0.0000000), wk =   0.0200000
        k(    2) = (   0.0151515   0.0000000   0.0151515), wk =   0.0200000
        k(    3) = (   0.0303030   0.0000000   0.0303030), wk =   0.0200000
        k(    4) = (   0.0454545   0.0000000   0.0454545), wk =   0.0200000
        k(    5) = (   0.0606061   0.0000000   0.0606061), wk =   0.0200000
        k(    6) = (   0.0757576   0.0000000   0.0757576), wk =   0.0200000
        k(    7) = (   0.0909091   0.0000000   0.0909091), wk =   0.0200000
        k(    8) = (   0.1060606   0.0000000   0.1060606), wk =   0.0200000
        k(    9) = (   0.1212121   0.0000000   0.1212121), wk =   0.0200000
        k(   10) = (   0.1363636   0.0000000   0.1363636), wk =   0.0200000
        k(   11) = (   0.1515152   0.0000000   0.1515152), wk =   0.0200000
        k(   12) = (   0.1666667   0.0000000   0.1666667), wk =   0.0200000
        k(   13) = (   0.1818182   0.0000000   0.1818182), wk =   0.0200000
        k(   14) = (   0.1969697   0.0000000   0.1969697), wk =   0.0200000
        k(   15) = (   0.2121212   0.0000000   0.2121212), wk =   0.0200000
        k(   16) = (   0.2272727   0.0000000   0.2272727), wk =   0.0200000
        k(   17) = (   0.2424242   0.0000000   0.2424242), wk =   0.0200000
        k(   18) = (   0.2575758   0.0000000   0.2575758), wk =   0.0200000
        k(   19) = (   0.2727273   0.0000000   0.2727273), wk =   0.0200000
        k(   20) = (   0.2878788   0.0000000   0.2878788), wk =   0.0200000
        k(   21) = (   0.3030303   0.0000000   0.3030303), wk =   0.0200000
        k(   22) = (   0.3181818   0.0000000   0.3181818), wk =   0.0200000
        k(   23) = (   0.3333333   0.0000000   0.3333333), wk =   0.0200000
        k(   24) = (   0.3484848   0.0000000   0.3484848), wk =   0.0200000
        k(   25) = (   0.3636364   0.0000000   0.3636364), wk =   0.0200000
        k(   26) = (   0.3787879   0.0000000   0.3787879), wk =   0.0200000
        k(   27) = (   0.3939394   0.0000000   0.3939394), wk =   0.0200000
        k(   28) = (   0.4090909   0.0000000   0.4090909), wk =   0.0200000
        k(   29) = (   0.4242424   0.0000000   0.4242424), wk =   0.0200000
        k(   30) = (   0.4393939   0.0000000   0.4393939), wk =   0.0200000
        k(   31) = (   0.4545455   0.0000000   0.4545455), wk =   0.0200000
        k(   32) = (   0.4696970   0.0000000   0.4696970), wk =   0.0200000
        k(   33) = (   0.4848485   0.0000000   0.4848485), wk =   0.0200000
        k(   34) = (   0.5000000   0.0000000   0.5000000), wk =   0.0200000
        k(   35) = (   0.5000000   0.0147059   0.5147059), wk =   0.0200000
        k(   36) = (   0.5000000   0.0294118   0.5294118), wk =   0.0200000
        k(   37) = (   0.5000000   0.0441176   0.5441176), wk =   0.0200000
        k(   38) = (   0.5000000   0.0588235   0.5588235), wk =   0.0200000
        k(   39) = (   0.5000000   0.0735294   0.5735294), wk =   0.0200000
        k(   40) = (   0.5000000   0.0882353   0.5882353), wk =   0.0200000
        k(   41) = (   0.5000000   0.1029412   0.6029412), wk =   0.0200000
        k(   42) = (   0.5000000   0.1176471   0.6176471), wk =   0.0200000
        k(   43) = (   0.5000000   0.1323529   0.6323529), wk =   0.0200000
        k(   44) = (   0.5000000   0.1470588   0.6470588), wk =   0.0200000
        k(   45) = (   0.5000000   0.1617647   0.6617647), wk =   0.0200000
        k(   46) = (   0.5000000   0.1764706   0.6764706), wk =   0.0200000
        k(   47) = (   0.5000000   0.1911765   0.6911765), wk =   0.0200000
        k(   48) = (   0.5000000   0.2058824   0.7058824), wk =   0.0200000
        k(   49) = (   0.5000000   0.2205882   0.7205882), wk =   0.0200000
        k(   50) = (   0.5000000   0.2352941   0.7352941), wk =   0.0200000
        k(   51) = (   0.5000000   0.2500000   0.7500000), wk =   0.0200000
        k(   52) = (   0.4886364   0.2613636   0.7500000), wk =   0.0200000
        k(   53) = (   0.4772727   0.2727273   0.7500000), wk =   0.0200000
        k(   54) = (   0.4659091   0.2840909   0.7500000), wk =   0.0200000
        k(   55) = (   0.4545455   0.2954545   0.7500000), wk =   0.0200000
        k(   56) = (   0.4431818   0.3068182   0.7500000), wk =   0.0200000
        k(   57) = (   0.4318182   0.3181818   0.7500000), wk =   0.0200000
        k(   58) = (   0.4204545   0.3295455   0.7500000), wk =   0.0200000
        k(   59) = (   0.4090909   0.3409091   0.7500000), wk =   0.0200000
        k(   60) = (   0.3977273   0.3522727   0.7500000), wk =   0.0200000
[...]
        k(   86) = (   0.1381579   0.1381579   0.2763158), wk =   0.0200000
        k(   87) = (   0.1282895   0.1282895   0.2565789), wk =   0.0200000
        k(   88) = (   0.1184211   0.1184211   0.2368421), wk =   0.0200000
        k(   89) = (   0.1085526   0.1085526   0.2171053), wk =   0.0200000
        k(   90) = (   0.0986842   0.0986842   0.1973684), wk =   0.0200000
        k(   91) = (   0.0888158   0.0888158   0.1776316), wk =   0.0200000
        k(   92) = (   0.0789474   0.0789474   0.1578947), wk =   0.0200000
        k(   93) = (   0.0690789   0.0690789   0.1381579), wk =   0.0200000
        k(   94) = (   0.0592105   0.0592105   0.1184211), wk =   0.0200000
        k(   95) = (   0.0493421   0.0493421   0.0986842), wk =   0.0200000
        k(   96) = (   0.0394737   0.0394737   0.0789474), wk =   0.0200000
        k(   97) = (   0.0296053   0.0296053   0.0592105), wk =   0.0200000
        k(   98) = (   0.0197368   0.0197368   0.0394737), wk =   0.0200000
        k(   99) = (   0.0098684   0.0098684   0.0197368), wk =   0.0200000
        k(  100) = (   0.0000000   0.0000000   0.0000000), wk =   0.0200000

     Check: negative core charge=   -0.000010

     Initial potential from superposition of free atoms

     starting charge    7.99888, renormalised to    8.00000
     Starting wfcs are    8 randomized atomic wfcs
     Checking if some PAW data can be deallocated...

     Self-consistent Calculation

     iteration #  1     ecut=    20.00 Ry     beta= 0.70
     Davidson diagonalization with overlap
     ethr =  1.00E-02,  avg # of iterations =  2.0

     total energy              =     -93.25170340 Ry
     Harris-Foulkes estimate   =     -93.27394020 Ry
     estimated scf accuracy    <       0.08152246 Ry

[...]

     total energy              =     -93.25916047 Ry
     Harris-Foulkes estimate   =     -93.25917087 Ry
     estimated scf accuracy    <       0.00002151 Ry

     iteration #  5     ecut=    20.00 Ry     beta= 0.70
     Davidson diagonalization with overlap
     ethr =  2.69E-07,  avg # of iterations =  2.2

     End of self-consistent calculation

          k = 0.0000 0.0000 0.0000 (   411 PWs)   bands (ev):

    -5.6277   6.3788   6.3789   6.3789

     occupation numbers
     1.0000   1.0000   1.0000   1.0000

[...]

          k = 0.0000 0.0000 0.0000 (   411 PWs)   bands (ev):

    -5.6277   6.3788   6.3788   6.3789

     occupation numbers
     1.0000   1.0000   1.0000   1.0000

     highest occupied level (ev):     6.3789

!    total energy              =     -93.25916448 Ry
     Harris-Foulkes estimate   =     -93.25916470 Ry
     estimated scf accuracy    <       0.00000052 Ry

     total all-electron energy =     -1159.950894 Ry

     The total energy is the sum of the following terms:

     one-electron contribution =       5.89068817 Ry
     hartree contribution      =       1.18740683 Ry
     xc contribution           =     -12.35172410 Ry
     ewald contribution        =     -16.79893901 Ry
     one-center paw contrib.   =     -71.18659638 Ry
      -> PAW hartree energy AE =       3.14055078 Ry
      -> PAW hartree energy PS =      -3.12915882 Ry
      -> PAW xc energy AE      =     -40.93841011 Ry
      -> PAW xc energy PS      =       5.33371996 Ry
      -> total E_H with PAW    =       1.19879879 Ry
      -> total E_XC with PAW   =     -47.95641424 Ry

     convergence has been achieved in   5 iterations

     Writing output data file pwscf.save/

     General routines

     Parallel routines

     PAW routines

   This run was terminated on:  23:53:31  17Oct2020

   JOB DONE.